 calcul des bandes graphene G - M - K - G
30
Line-mode
rec
0.  0. 0.   ! G
0.5 0. 0.   ! M

0.5       0.        0. ! M
0.3333333 0.3333333 0. ! K
  
0.3333333 0.3333333 0. ! K
0.        0.        0. ! G

