graphene a = 2.700000
 2.463800
   1.00000    0.00000    0.00000
  -0.50000    0.86602    0.00000
   0.00000    0.00000   14.00000
 C
 2
Selective Dynamics
Direct
 0.0000000   0.0000000   0.0000000 T T F
 0.3333333   0.6666667   0.0000000 T T F
