graphene a = 2.700000                   
   2.46380000000000     
     1.0000000000000000    0.0000000000000000    0.0000000000000000
    -0.5000000000000000    0.8660200000000001    0.0000000000000000
     0.0000000000000000    0.0000000000000000   14.0000000000000000
   C 
     2
Selective dynamics
Direct
  0.0000000000000000  0.0000000000000000  0.0000000000000000   T   T   F
  0.3333332999999996  0.6666667000000004  0.0000000000000000   T   T   F
 
  0.00000000E+00  0.00000000E+00  0.00000000E+00
  0.00000000E+00  0.00000000E+00  0.00000000E+00
