Cu metal rhomboedrique
   3.620
   0.5 0.5 0.0
   0.0 0.5 0.5
   0.5 0.0 0.5
   Cu
   1
Direct
 0.0 0.0 0.0
